Translating instance to solver...

Set parameter TimeLimit to value 28800
Gurobi Optimizer version 11.0.2 build v11.0.2rc0 (linux64 - "Ubuntu 22.04.4 LTS")

CPU model: Intel(R) Xeon(R) Gold 5120 CPU @ 2.20GHz, instruction set [SSE2|AVX|AVX2|AVX512]
Thread count: 28 physical cores, 56 logical processors, using up to 28 threads

Academic license 2463511 - for non-commercial use only - registered to lu___@cefet-rj.br
Optimize a model with 24835 rows, 13713 columns and 58929 nonzeros
Model fingerprint: 0xb84a4ff5
Variable types: 1 continuous, 13712 integer (13680 binary)
Coefficient statistics:
  Matrix range     [1e+00, 1e+05]
  Objective range  [3e-01, 8e-01]
  Bounds range     [1e+00, 3e+01]
  RHS range        [1e+00, 1e+02]
Presolve removed 21624 rows and 12374 columns
Presolve time: 0.23s
Presolved: 3211 rows, 1339 columns, 8937 nonzeros
Variable types: 0 continuous, 1339 integer (1308 binary)
Found heuristic solution: objective 22.6767300
Found heuristic solution: objective 21.9208390

Root relaxation: objective 3.044114e+00, 480 iterations, 0.01 seconds (0.01 work units)

    Nodes    |    Current Node    |     Objective Bounds      |     Work
 Expl Unexpl |  Obj  Depth IntInf | Incumbent    BestBd   Gap | It/Node Time

     0     0    3.04411    0   94   21.92084    3.04411  86.1%     -    0s
H    0     0                      21.4708390    3.04411  85.8%     -    0s
H    0     0                       6.0471280    3.04411  49.7%     -    0s
     0     0    3.10446    0   36    6.04713    3.10446  48.7%     -    0s
H    0     0                       4.3912370    3.17651  27.7%     -    0s
H    0     0                       4.0853460    3.17651  22.2%     -    0s
     0     0    3.17651    0   76    4.08535    3.17651  22.2%     -    0s
     0     0    3.17651    0   85    4.08535    3.17651  22.2%     -    0s
     0     0    3.24711    0  167    4.08535    3.24711  20.5%     -    0s
     0     0    3.32946    0  222    4.08535    3.32946  18.5%     -    0s
     0     0    3.32946    0  182    4.08535    3.32946  18.5%     -    0s
     0     0    3.34608    0  201    4.08535    3.34608  18.1%     -    0s
     0     0    3.34919    0  185    4.08535    3.34919  18.0%     -    0s
     0     0    3.34919    0   93    4.08535    3.34919  18.0%     -    1s
     0     0    3.34919    0  113    4.08535    3.34919  18.0%     -    1s
     0     0    3.34919    0  204    4.08535    3.34919  18.0%     -    1s
     0     0    3.34919    0  233    4.08535    3.34919  18.0%     -    1s
     0     0    3.34919    0  237    4.08535    3.34919  18.0%     -    1s
     0     0    3.34919    0  190    4.08535    3.34919  18.0%     -    1s
     0     0    3.34919    0  196    4.08535    3.34919  18.0%     -    1s
     0     0    3.34919    0  238    4.08535    3.34919  18.0%     -    1s
     0     0    3.34919    0  308    4.08535    3.34919  18.0%     -    1s
     0     0    3.34919    0  325    4.08535    3.34919  18.0%     -    1s
     0     0    3.40727    0  304    4.08535    3.40727  16.6%     -    1s
     0     0    3.40887    0  280    4.08535    3.40887  16.6%     -    1s
     0     2    3.40887    0  280    4.08535    3.40887  16.6%     -    1s
H   42    60                       3.9412370    3.41060  13.5%   222    2s

Cutting planes:
  Learned: 99
  Gomory: 4
  Implied bound: 84
  Clique: 7
  MIR: 31
  Zero half: 16
  RLT: 96
  Relax-and-lift: 33
  BQP: 81

Explored 842 nodes (80387 simplex iterations) in 3.06 seconds (2.23 work units)
Thread count was 28 (of 56 available processors)

Solution count 7: 3.94124 4.08535 4.39124 ... 22.6767

Optimal solution found (tolerance 1.00e-04)
Best objective 3.941237000000e+00, best bound 3.941237000000e+00, gap 0.0000%

Solver Wallclock Time (for this epsilon): 3.0601770877838135 s
Python wallclock Time (for this epsilon): 4.872551202774048 s


Total Elapsed Time (since program call): 79.35594868659973 s

Results:

I = 3.941237 mA
C = 100.0 points
C ~= 40.0 km^2

Minimum Epsilon for this instance = 10
Maximum Epsilon for this instance = 100

Current Epsilon = 100


Preprocessing Time (for this epsilon): 0.005191802978515625 s


Updated solution vectors:
sol_I = [-0.611782,-1.061782,-1.061782,-1.061782,-1.061782,-1.511782,-1.511782,-2.267673,-2.5735639999999997,-3.941237]
sol_C = [12.0,28.0,47.0,47.0,52.0,70.0,70.0,80.0,90.0,100.0]
sol_eps = [10,20,30,40,50,60,70,80,90,100]
sol_gap = [0.0,0.0,0.0,0.0,7.10526315561566e-08,0.0,0.0,0.0,0.0,0.0]
